proyfinal/src/viki/013/experimentInOfficeAgust.take6.output/1b9b3607-e686-4473-9ea2-930d5bf9d937.als.dat
{'cnf.clauses': '118081',
 'cnf.totvars': '69608',
 'conflict literals': '1',
 'conflicts': '2',
 'decisions': '424',
 'memused.mb': '15.65',
 'outcome': 'UNSAT',
 'propagations': '18906',
 'restarts': '1',
 'solver.msecs': 32,
 'task.msecs': 80}
