proyfinal/src/viki/013/experimentInOfficeAgust.take6.output/1b9b3607-e686-4473-9ea2-930d5bf9d937.als.out
Reading from standard input... Use '--help' for help.
============================[ Problem Statistics ]=============================
|                                                                             |
|  Number of variables:         69608                                         |
|  Number of clauses:          118081                                         |
|  Parse time:                   0.02 s                                       |
|                                                                             |
============================[ Search Statistics ]==============================
| Conflicts |          ORIGINAL         |          LEARNT          | Progress |
|           |    Vars  Clauses Literals |    Limit  Clauses Lit/Cl |          |
===============================================================================
===============================================================================
restarts              : 1
conflicts             : 2              (61 /sec)
decisions             : 424            (0.00 % random) (12969 /sec)
propagations          : 18906          (578271 /sec)
conflict literals     : 1              (0.00 % deleted)
Memory used           : 15.65 MB
CPU time              : 0.032694 s

UNSATISFIABLE
